NAME : 10_3_3_1_(38).dat
COMMENT : Henke, Speranza, Wäscher, 2015
TYPE : MCVRP
DIMENSION : 11
EDGE_WEIGHT_TYPE : DISTANCE_MATRIX
CAPACITY : 1000
VEHICLES : 2
PRODUCT TYPES : 3
COMPARTMENTS : 3
NODE_COORD_SECTION
1 50 50
2 98.29 4.22
3 6.96 6.54
4 56.88 37.18
5 13.54 47.75
6 90.88 8.7
7 51.7 6.13
8 99.62 28.12
9 1.31 86.81
10 3.39 16.34
11 58.36 78.87
DEMAND_SECTION
1 0 0 0
2 117 0 0
3 0 206 0
4 0 0 240
5 0 64 0
6 164 0 0
7 213 0 0
8 0 117 0
9 179 0 0
10 0 0 29
11 0 16 0
DEPOT_SECTION
1
EOF